============================[ Problem Statistics ]=============================|                                                                             ||  Number of variables:          4242                                         ||  Number of clauses:            9667                                         ||  Parse time:                   0.07 s                                       ||                                                                             |============================[ Search Statistics ]==============================| Conflicts |          ORIGINAL         |          LEARNT          | Progress ||           |    Vars  Clauses Literals |    Limit  Clauses Lit/Cl |          |==============================================================================================================================================================restarts              : 1conflicts             : 45             (441 /sec)decisions             : 131            (0.00 % random) (1284 /sec)propagations          : 8114           (79549 /sec)conflict literals     : 1859           (95.83 % deleted)CPU time              : 0.102 sSATISFIABLE